&CONTROL
   calculation     = 'scf'
   outdir          = 'pwscf_output'
   prefix          = 'pwscf'
   pseudo_dir      = './'
   tprnfor         = .true.
   wf_collect      = .true.
/

&SYSTEM
   degauss         = 0.0063338
   ecutwfc         = 300
   ibrav           = 0
   nat             = 54
   nosym           = .true.
   nspin           = 1
   ntyp            = 1
   occupations     = 'smearing'
   smearing        = 'fd'
   tot_charge      = 0
/

&ELECTRONS
   conv_thr        = 1e-10
/


ATOMIC_SPECIES 
   H  1.00794 H.qmc.soft.upf

ATOMIC_POSITIONS bohr
   H       -0.07327746       0.51826004       0.86149671 
   H        2.36615000       0.59153750       0.69043875 
   H        4.73230000       0.59153750       0.69043875 
   H        0.00000000       2.95768750       0.69043875 
   H        2.36615000       2.95768750       0.69043875 
   H        4.73230000       2.95768750       0.69043875 
   H        0.00000000       5.32383750       0.69043875 
   H        2.36615000       5.32383750       0.69043875 
   H        4.73230000       5.32383750       0.69043875 
   H       -1.18307500      -0.59153750       3.45219375 
   H        1.18307500      -0.59153750       3.45219375 
   H        3.54922500      -0.59153750       3.45219375 
   H       -1.18307500       1.77461250       3.45219375 
   H        1.18307500       1.77461250       3.45219375 
   H        3.54922500       1.77461250       3.45219375 
   H       -1.18307500       4.14076250       3.45219375 
   H        1.18307500       4.14076250       3.45219375 
   H        3.54922500       4.14076250       3.45219375 
   H       -2.36615000      -1.77461250       6.21394875 
   H       -0.00000000      -1.77461250       6.21394875 
   H        2.36615000      -1.77461250       6.21394875 
   H       -2.36615000       0.59153750       6.21394875 
   H       -0.00000000       0.59153750       6.21394875 
   H        2.36615000       0.59153750       6.21394875 
   H       -2.36615000       2.95768750       6.21394875 
   H       -0.00000000       2.95768750       6.21394875 
   H        2.36615000       2.95768750       6.21394875 
   H        1.18307500       0.59153750       2.07131625 
   H        3.54922500       0.59153750       2.07131625 
   H        5.91537500       0.59153750       2.07131625 
   H        1.18307500       2.95768750       2.07131625 
   H        3.54922500       2.95768750       2.07131625 
   H        5.91537500       2.95768750       2.07131625 
   H        1.18307500       5.32383750       2.07131625 
   H        3.54922500       5.32383750       2.07131625 
   H        5.91537500       5.32383750       2.07131625 
   H       -0.00000000      -0.59153750       4.83307125 
   H        2.36615000      -0.59153750       4.83307125 
   H        4.73230000      -0.59153750       4.83307125 
   H       -0.00000000       1.77461250       4.83307125 
   H        2.36615000       1.77461250       4.83307125 
   H        4.73230000       1.77461250       4.83307125 
   H       -0.00000000       4.14076250       4.83307125 
   H        2.36615000       4.14076250       4.83307125 
   H        4.73230000       4.14076250       4.83307125 
   H       -1.18307500      -1.77461250       7.59482625 
   H        1.18307500      -1.77461250       7.59482625 
   H        3.54922500      -1.77461250       7.59482625 
   H       -1.18307500       0.59153750       7.59482625 
   H        1.18307500       0.59153750       7.59482625 
   H        3.54922500       0.59153750       7.59482625 
   H       -1.18307500       2.95768750       7.59482625 
   H        1.18307500       2.95768750       7.59482625 
   H        3.54922500       2.95768750       7.59482625 

K_POINTS automatic
   6 6 6  1 1 1 

CELL_PARAMETERS bohr
         7.09845000       0.00000000       0.00000000 
         0.00000000       7.09845000       0.00000000 
        -3.54922500      -3.54922500       8.28526500 


